unknown
(model
; cardinality of BoundSet is 3
(declare-sort BoundSet 0)
; rep: @uc_BoundSet_0
; rep: @uc_BoundSet_1
; rep: @uc_BoundSet_2
; cardinality of UnboundSet is 1
(declare-sort UnboundSet 0)
(declare-fun groundTerm_4 () UnboundSet)
(define-fun IsWellStirred ((BOUND_VARIABLE_439 BoundSet)) Bool true)
(define-fun Melts ((BOUND_VARIABLE_439 BoundSet)) Bool true)
(define-fun IsAtFreezingPoint ((BOUND_VARIABLE_439 BoundSet)) Bool true)
)
sat
(model
; cardinality of BoundSet is 1
(declare-sort BoundSet 0)
; rep: @uc_BoundSet_0
; cardinality of UnboundSet is 1
(declare-sort UnboundSet 0)
(declare-fun groundTerm_7 () UnboundSet)
(define-fun IsWellStirred ((BOUND_VARIABLE_456 BoundSet)) Bool true)
(define-fun Melts ((BOUND_VARIABLE_456 BoundSet)) Bool true)
(define-fun IsAtFreezingPoint ((BOUND_VARIABLE_456 BoundSet)) Bool true)
)
